============================[ Problem Statistics ]=============================|                                                                             ||  Number of variables:          4242                                         ||  Number of clauses:            9706                                         ||  Parse time:                   0.11 s                                       ||                                                                             |============================[ Search Statistics ]==============================| Conflicts |          ORIGINAL         |          LEARNT          | Progress ||           |    Vars  Clauses Literals |    Limit  Clauses Lit/Cl |          |==============================================================================================================================================================restarts              : 1conflicts             : 68             (398 /sec)decisions             : 152            (0.00 % random) (889 /sec)propagations          : 8171           (47784 /sec)conflict literals     : 3297           (95.94 % deleted)CPU time              : 0.171 sSATISFIABLE